************************************************************************
file with basedata            : j60_32.bas
initial value random generator: 1562915856
************************************************************************
projects                      :  1
jobs (incl. supersource/sink ):  62
horizon                       :  312
RESOURCES
  - renewable                 :  4   R
  - nonrenewable              :  0   N
  - doubly constrained        :  0   D
************************************************************************
PROJECT INFORMATION:
pronr.  #jobs rel.date duedate tardcost  MPM-Time
    1     60      0       60       56       60
************************************************************************
PRECEDENCE RELATIONS:
jobnr.    #modes  #successors   successors
   1        1          3           2   3   4
   2        1          3           5  11  39
   3        1          1          51
   4        1          3          13  15  20
   5        1          1           6
   6        1          3           7  10  23
   7        1          3           8   9  16
   8        1          1          31
   9        1          3          12  18  30
  10        1          3          14  21  29
  11        1          2          35  52
  12        1          1          55
  13        1          2          34  36
  14        1          3          17  19  22
  15        1          3          26  33  51
  16        1          2          40  46
  17        1          1          37
  18        1          3          24  25  27
  19        1          1          47
  20        1          1          31
  21        1          1          46
  22        1          1          49
  23        1          1          44
  24        1          1          43
  25        1          2          32  56
  26        1          1          44
  27        1          3          28  43  50
  28        1          1          42
  29        1          1          45
  30        1          1          58
  31        1          2          38  57
  32        1          1          37
  33        1          1          37
  34        1          1          42
  35        1          1          36
  36        1          1          57
  37        1          1          45
  38        1          1          56
  39        1          3          41  44  48
  40        1          1          61
  41        1          1          55
  42        1          2          47  61
  43        1          1          61
  44        1          1          53
  45        1          1          55
  46        1          2          47  59
  47        1          1          52
  48        1          1          57
  49        1          1          54
  50        1          1          52
  51        1          1          53
  52        1          1          54
  53        1          1          56
  54        1          1          60
  55        1          1          58
  56        1          1          58
  57        1          2          59  60
  58        1          1          60
  59        1          1          62
  60        1          1          62
  61        1          1          62
  62        1          0        
************************************************************************
REQUESTS/DURATIONS:
jobnr. mode duration  R 1  R 2  R 3  R 4
------------------------------------------------------------------------
  1      1     0       0    0    0    0
  2      1     1       7    3    8    7
  3      1     6       6    4    8    6
  4      1     8       2    3    6    3
  5      1     8       2    4    5    6
  6      1     1       4    6    8    5
  7      1     3      10    1    8    1
  8      1     9       1    2    8    1
  9      1     7       9    4    1    5
 10      1     7       7    7    6    1
 11      1     5       2    3    2   10
 12      1     8       7    5    4    5
 13      1     2       5    7    2    3
 14      1     7      10    7    2    3
 15      1     1       3    3    3    6
 16      1     6       5    2    6    5
 17      1     2       9    8    3    8
 18      1     3       1    1    5    5
 19      1     7       9    8    1    4
 20      1     8       2    1    7    1
 21      1    10       9    5    1    1
 22      1     2       3    4    1    5
 23      1     7       4    7    6    3
 24      1     5       8   10    3    6
 25      1     7      10    7    3    7
 26      1     7       9    6    1    6
 27      1     5       5    3    6    4
 28      1     9       5   10    4    2
 29      1    10       4    4   10    8
 30      1     4       5    5    4    7
 31      1     5       9    1   10    5
 32      1     1       1    5    7    1
 33      1     1      10    6    9    7
 34      1     2       9    6    9    5
 35      1     6       2    9    1    5
 36      1     1       9    2    7    5
 37      1     3       3    3    2    1
 38      1     5       6    9    6    6
 39      1     4       6    5    2   10
 40      1     4       4    5    5    4
 41      1     9       8   10    7    4
 42      1     6       7   10    4    7
 43      1    10       2    8    5    2
 44      1     9       7    6    6    6
 45      1     8      10    3    9    1
 46      1     2       8    1    1    2
 47      1     4       4    4    1    2
 48      1     2       9    5    3    2
 49      1     6       7    4    4    9
 50      1     1       1    3    9    1
 51      1     1       9    4    2    6
 52      1     9       3    7    3    2
 53      1    10       5    2    8    5
 54      1     1       5   10    4    3
 55      1     2       4    2    2    1
 56      1     8       1    6    7    6
 57      1    10       6    2    8    4
 58      1     7      10    2    4    4
 59      1     1      10   10    2    3
 60      1     3       6    2    2   10
 61      1     6       4    9    2    2
 62      1     0       0    0    0    0
************************************************************************
RESOURCEAVAILABILITIES:
  R 1  R 2  R 3  R 4
   80   61   50   59
************************************************************************
